dry_run: False
attempt: 1
with_proof: False
command: cadical -w results/paper_assets/full_bundle/atlas/case_10111/model.txt results/paper_assets/full_bundle/atlas/case_10111/sen24.cnf
return_code: 10
duration_sec: 0.018810
----- STDOUT -----
c --- [ banner ] -------------------------------------------------------------
c 
c CaDiCaL SAT Solver
c Copyright (c) 2016-2025
c A. Biere, M. Fleury, N. Froleyks, K. Fazekas, F. Pollitt, T. Faller
c JKU Linz, University of Freiburg, TU Wien
c 
c Version 3.0.0
c Apple clang version 17.0.0 (clang-1700.6.3.2) -Wall -Wextra -O3 -DNDEBUG -DNCLOSEFROM
c Tue Dec 23 21:53:37 UTC 2025 Darwin Sequoia-arm64.local 24.6.0 arm64
c 
c --- [ parsing input ] ------------------------------------------------------
c 
c reading DIMACS file from 'results/paper_assets/full_bundle/atlas/case_10111/sen24.cnf'
c opening file to read 'results/paper_assets/full_bundle/atlas/case_10111/sen24.cnf'
c found 'p cnf 6936 48386' header
c parsed 48386 clauses in 0.01 seconds process time
c 
c --- [ options ] ------------------------------------------------------------
c 
c all options are set to their default value
c 
c --- [ solving ] ------------------------------------------------------------
c 
c time measured in process time since initialization
c 
c  seconds  reduction conflicts       size tier2      variables
c         MB    restarts   redundant    glue  trail        remaining
c          level     rate       size/glu tier1  irredundant
c 
c *  0.01  0  0 0   0  0    0    0 0.0 0 0 2 6  0% 48386 6936 100%
c l  0.01  0  0 0   0  0    0    0 0.0 0 0 2 6  0% 48386 6936 100%
c 1  0.01  0  0 0   0  0    0    0 0.0 0 0 2 6  0% 48386 6936 100%
c 
c --- [ result ] -------------------------------------------------------------
c 
c writing result to 'results/paper_assets/full_bundle/atlas/case_10111/model.txt'
c 
c --- [ run-time profiling ] -------------------------------------------------
c 
c process time taken by individual solving procedures
c (percentage relative to process time for solving)
c 
c         0.01 1967.57% parse
c         0.00   95.73% lucky
c         0.00   95.73% search
c         0.00    0.00% simplify
c   =================================
c         0.00    4.50% solve
c 
c last line shows process time for solving
c (percentage relative to total process time)
c 
c --- [ statistics ] ---------------------------------------------------------
c 
c lucky:                         1       100.00 %  of tried
c minimized:                     0         0.00 %  learned literals
c shrunken:                      0         0.00 %  learned literals
c minishrunken:                  0         0.00 %  learned literals
c propagations:                  0         0.00 M  per second
c ticks:                         0         0.00    propagation
c 
c seconds are measured in process time for solving
c 
c --- [ glue usage ] ---------------------------------------------------------
c 
c focused glue 2 used 0 clauses 0.000% accumulated 0.000% tier1
c focused glue 3 used 0 clauses 0.000% accumulated 0.000%
c focused glue 4 used 0 clauses 0.000% accumulated 0.000%
c focused glue 5 used 0 clauses 0.000% accumulated 0.000%
c focused glue 6 used 0 clauses 0.000% accumulated 0.000% tier2
c 
c stable glue 2 used 0 clauses 0.000% accumulated 0.000% tier1
c stable glue 3 used 0 clauses 0.000% accumulated 0.000%
c stable glue 4 used 0 clauses 0.000% accumulated 0.000%
c stable glue 5 used 0 clauses 0.000% accumulated 0.000%
c stable glue 6 used 0 clauses 0.000% accumulated 0.000% tier2
c 
c 
c --- [ resources ] ----------------------------------------------------------
c 
c total process time since initialization:         0.01    seconds
c total real time since initialization:            0.01    seconds
c maximum resident set size of process:         8464.00    MB
c 
c --- [ shutting down ] ------------------------------------------------------
c 
c exit 10
----- STDERR -----
